c 0.010440826416015625 (encode time in sec)
p cnf 99 1048
1 2 3 4 0
1 2 -3 4 0
1 -2 3 4 0
1 -2 -3 4 0
-1 2 3 4 0
-1 2 -3 4 0
-1 -2 3 4 0
-1 -2 -3 4 0
5 6 7 8 0
5 6 -7 8 0
5 -6 7 8 0
5 -6 -7 8 0
-5 6 7 8 0
-5 6 -7 8 0
-5 -6 7 8 0
-5 -6 -7 8 0
9 10 11 12 0
9 10 -11 12 0
9 -10 11 12 0
9 -10 -11 12 0
-9 10 11 12 0
-9 10 -11 12 0
-9 -10 11 12 0
-9 -10 -11 12 0
13 14 15 1 2 3 5 6 7 17 0
13 14 15 1 2 3 5 6 -7 17 0
13 14 15 1 2 3 5 -6 7 16 0
13 14 15 1 2 3 5 -6 -7 18 0
13 14 15 1 2 3 -5 6 7 0
13 14 15 1 2 3 -5 6 -7 20 0
13 14 15 1 2 3 -5 -6 7 0
13 14 15 1 2 3 -5 -6 -7 0
13 14 15 1 2 -3 5 6 7 17 0
13 14 15 1 2 -3 5 6 -7 21 0
13 14 15 1 2 -3 5 -6 7 22 0
13 14 15 1 2 -3 5 -6 -7 0
13 14 15 1 2 -3 -5 6 7 0
13 14 15 1 2 -3 -5 6 -7 0
13 14 15 1 2 -3 -5 -6 7 0
13 14 15 1 2 -3 -5 -6 -7 0
13 14 15 1 -2 3 5 6 7 23 0
13 14 15 1 -2 3 5 6 -7 20 0
13 14 15 1 -2 3 5 -6 7 0
13 14 15 1 -2 3 5 -6 -7 0
13 14 15 1 -2 3 -5 6 7 0
13 14 15 1 -2 3 -5 6 -7 0
13 14 15 1 -2 3 -5 -6 7 0
13 14 15 1 -2 3 -5 -6 -7 0
13 14 15 1 -2 -3 5 6 7 23 0
13 14 15 1 -2 -3 5 6 -7 0
13 14 15 1 -2 -3 5 -6 7 0
13 14 15 1 -2 -3 5 -6 -7 0
13 14 15 1 -2 -3 -5 6 7 0
13 14 15 1 -2 -3 -5 6 -7 0
13 14 15 1 -2 -3 -5 -6 7 0
13 14 15 1 -2 -3 -5 -6 -7 0
13 14 15 -1 2 3 5 6 7 24 0
13 14 15 -1 2 3 5 6 -7 0
13 14 15 -1 2 3 5 -6 7 0
13 14 15 -1 2 3 5 -6 -7 0
13 14 15 -1 2 3 -5 6 7 0
13 14 15 -1 2 3 -5 6 -7 0
13 14 15 -1 2 3 -5 -6 7 0
13 14 15 -1 2 3 -5 -6 -7 0
13 14 15 -1 2 -3 5 6 7 25 0
13 14 15 -1 2 -3 5 6 -7 0
13 14 15 -1 2 -3 5 -6 7 0
13 14 15 -1 2 -3 5 -6 -7 0
13 14 15 -1 2 -3 -5 6 7 0
13 14 15 -1 2 -3 -5 6 -7 0
13 14 15 -1 2 -3 -5 -6 7 0
13 14 15 -1 2 -3 -5 -6 -7 0
13 14 15 -1 -2 3 5 6 7 26 0
13 14 15 -1 -2 3 5 6 -7 0
13 14 15 -1 -2 3 5 -6 7 0
13 14 15 -1 -2 3 5 -6 -7 0
13 14 15 -1 -2 3 -5 6 7 0
13 14 15 -1 -2 3 -5 6 -7 0
13 14 15 -1 -2 3 -5 -6 7 0
13 14 15 -1 -2 3 -5 -6 -7 0
13 14 15 -1 -2 -3 5 6 7 0
13 14 15 -1 -2 -3 5 6 -7 0
13 14 15 -1 -2 -3 5 -6 7 0
13 14 15 -1 -2 -3 5 -6 -7 0
13 14 15 -1 -2 -3 -5 6 7 0
13 14 15 -1 -2 -3 -5 6 -7 0
13 14 15 -1 -2 -3 -5 -6 7 0
13 14 15 -1 -2 -3 -5 -6 -7 0
13 14 -15 1 2 3 5 6 7 0
13 14 -15 1 2 3 5 6 -7 0
13 14 -15 1 2 3 5 -6 7 46 0
13 14 -15 1 2 3 5 -6 -7 18 0
13 14 -15 1 2 3 -5 6 7 21 0
13 14 -15 1 2 3 -5 6 -7 0
13 14 -15 1 2 3 -5 -6 7 40 0
13 14 -15 1 2 3 -5 -6 -7 0
13 14 -15 1 2 -3 5 6 7 0
13 14 -15 1 2 -3 5 6 -7 25 0
13 14 -15 1 2 -3 5 -6 7 31 0
13 14 -15 1 2 -3 5 -6 -7 42 0
13 14 -15 1 2 -3 -5 6 7 42 0
13 14 -15 1 2 -3 -5 6 -7 0
13 14 -15 1 2 -3 -5 -6 7 0
13 14 -15 1 2 -3 -5 -6 -7 0
13 14 -15 1 -2 3 5 6 7 27 0
13 14 -15 1 -2 3 5 6 -7 18 0
13 14 -15 1 -2 3 5 -6 7 39 0
13 14 -15 1 -2 3 5 -6 -7 39 0
13 14 -15 1 -2 3 -5 6 7 0
13 14 -15 1 -2 3 -5 6 -7 0
13 14 -15 1 -2 3 -5 -6 7 0
13 14 -15 1 -2 3 -5 -6 -7 0
13 14 -15 1 -2 -3 5 6 7 27 0
13 14 -15 1 -2 -3 5 6 -7 23 0
13 14 -15 1 -2 -3 5 -6 7 18 0
13 14 -15 1 -2 -3 5 -6 -7 0
13 14 -15 1 -2 -3 -5 6 7 0
13 14 -15 1 -2 -3 -5 6 -7 0
13 14 -15 1 -2 -3 -5 -6 7 0
13 14 -15 1 -2 -3 -5 -6 -7 0
13 14 -15 -1 2 3 5 6 7 18 0
13 14 -15 -1 2 3 5 6 -7 48 0
13 14 -15 -1 2 3 5 -6 7 39 0
13 14 -15 -1 2 3 5 -6 -7 0
13 14 -15 -1 2 3 -5 6 7 0
13 14 -15 -1 2 3 -5 6 -7 0
13 14 -15 -1 2 3 -5 -6 7 0
13 14 -15 -1 2 3 -5 -6 -7 0
13 14 -15 -1 2 -3 5 6 7 42 0
13 14 -15 -1 2 -3 5 6 -7 38 0
13 14 -15 -1 2 -3 5 -6 7 0
13 14 -15 -1 2 -3 5 -6 -7 0
13 14 -15 -1 2 -3 -5 6 7 0
13 14 -15 -1 2 -3 -5 6 -7 0
13 14 -15 -1 2 -3 -5 -6 7 0
13 14 -15 -1 2 -3 -5 -6 -7 0
13 14 -15 -1 -2 3 5 6 7 28 0
13 14 -15 -1 -2 3 5 6 -7 37 0
13 14 -15 -1 -2 3 5 -6 7 0
13 14 -15 -1 -2 3 5 -6 -7 0
13 14 -15 -1 -2 3 -5 6 7 0
13 14 -15 -1 -2 3 -5 6 -7 0
13 14 -15 -1 -2 3 -5 -6 7 0
13 14 -15 -1 -2 3 -5 -6 -7 0
13 14 -15 -1 -2 -3 5 6 7 37 0
13 14 -15 -1 -2 -3 5 6 -7 0
13 14 -15 -1 -2 -3 5 -6 7 0
13 14 -15 -1 -2 -3 5 -6 -7 0
13 14 -15 -1 -2 -3 -5 6 7 0
13 14 -15 -1 -2 -3 -5 6 -7 0
13 14 -15 -1 -2 -3 -5 -6 7 0
13 14 -15 -1 -2 -3 -5 -6 -7 0
13 -14 15 1 2 3 5 6 7 0
13 -14 15 1 2 3 5 6 -7 0
13 -14 15 1 2 3 5 -6 7 0
13 -14 15 1 2 3 5 -6 -7 39 0
13 -14 15 1 2 3 -5 6 7 42 0
13 -14 15 1 2 3 -5 6 -7 20 0
13 -14 15 1 2 3 -5 -6 7 40 0
13 -14 15 1 2 3 -5 -6 -7 0
13 -14 15 1 2 -3 5 6 7 0
13 -14 15 1 2 -3 5 6 -7 25 0
13 -14 15 1 2 -3 5 -6 7 0
13 -14 15 1 2 -3 5 -6 -7 21 0
13 -14 15 1 2 -3 -5 6 7 22 0
13 -14 15 1 2 -3 -5 6 -7 0
13 -14 15 1 2 -3 -5 -6 7 25 0
13 -14 15 1 2 -3 -5 -6 -7 0
13 -14 15 1 -2 3 5 6 7 0
13 -14 15 1 -2 3 5 6 -7 39 0
13 -14 15 1 -2 3 5 -6 7 24 0
13 -14 15 1 -2 3 5 -6 -7 20 0
13 -14 15 1 -2 3 -5 6 7 26 0
13 -14 15 1 -2 3 -5 6 -7 0
13 -14 15 1 -2 3 -5 -6 7 0
13 -14 15 1 -2 3 -5 -6 -7 0
13 -14 15 1 -2 -3 5 6 7 0
13 -14 15 1 -2 -3 5 6 -7 27 0
13 -14 15 1 -2 -3 5 -6 7 20 0
13 -14 15 1 -2 -3 5 -6 -7 29 0
13 -14 15 1 -2 -3 -5 6 7 34 0
13 -14 15 1 -2 -3 -5 6 -7 0
13 -14 15 1 -2 -3 -5 -6 7 0
13 -14 15 1 -2 -3 -5 -6 -7 0
13 -14 15 -1 2 3 5 6 7 0
13 -14 15 -1 2 3 5 6 -7 48 0
13 -14 15 -1 2 3 5 -6 7 20 0
13 -14 15 -1 2 3 5 -6 -7 18 0
13 -14 15 -1 2 3 -5 6 7 0
13 -14 15 -1 2 3 -5 6 -7 0
13 -14 15 -1 2 3 -5 -6 7 0
13 -14 15 -1 2 3 -5 -6 -7 0
13 -14 15 -1 2 -3 5 6 7 22 0
13 -14 15 -1 2 -3 5 6 -7 38 0
13 -14 15 -1 2 -3 5 -6 7 41 0
13 -14 15 -1 2 -3 5 -6 -7 0
13 -14 15 -1 2 -3 -5 6 7 0
13 -14 15 -1 2 -3 -5 6 -7 0
13 -14 15 -1 2 -3 -5 -6 7 0
13 -14 15 -1 2 -3 -5 -6 -7 0
13 -14 15 -1 -2 3 5 6 7 27 0
13 -14 15 -1 -2 3 5 6 -7 37 0
13 -14 15 -1 -2 3 5 -6 7 0
13 -14 15 -1 -2 3 5 -6 -7 0
13 -14 15 -1 -2 3 -5 6 7 0
13 -14 15 -1 -2 3 -5 6 -7 0
13 -14 15 -1 -2 3 -5 -6 7 0
13 -14 15 -1 -2 3 -5 -6 -7 0
13 -14 15 -1 -2 -3 5 6 7 37 0
13 -14 15 -1 -2 -3 5 6 -7 37 0
13 -14 15 -1 -2 -3 5 -6 7 0
13 -14 15 -1 -2 -3 5 -6 -7 0
13 -14 15 -1 -2 -3 -5 6 7 0
13 -14 15 -1 -2 -3 -5 6 -7 0
13 -14 15 -1 -2 -3 -5 -6 7 0
13 -14 15 -1 -2 -3 -5 -6 -7 0
13 -14 -15 1 2 3 5 6 7 0
13 -14 -15 1 2 3 5 6 -7 0
13 -14 -15 1 2 3 5 -6 7 0
13 -14 -15 1 2 3 5 -6 -7 39 0
13 -14 -15 1 2 3 -5 6 7 0
13 -14 -15 1 2 3 -5 6 -7 0
13 -14 -15 1 2 3 -5 -6 7 20 0
13 -14 -15 1 2 3 -5 -6 -7 42 0
13 -14 -15 1 2 -3 5 6 7 0
13 -14 -15 1 2 -3 5 6 -7 0
13 -14 -15 1 2 -3 5 -6 7 0
13 -14 -15 1 2 -3 5 -6 -7 0
13 -14 -15 1 2 -3 -5 6 7 25 0
13 -14 -15 1 2 -3 -5 6 -7 31 0
13 -14 -15 1 2 -3 -5 -6 7 25 0
13 -14 -15 1 2 -3 -5 -6 -7 0
13 -14 -15 1 -2 3 5 6 7 0
13 -14 -15 1 -2 3 5 6 -7 0
13 -14 -15 1 -2 3 5 -6 7 39 0
13 -14 -15 1 -2 3 5 -6 -7 27 0
13 -14 -15 1 -2 3 -5 6 7 20 0
13 -14 -15 1 -2 3 -5 6 -7 37 0
13 -14 -15 1 -2 3 -5 -6 7 0
13 -14 -15 1 -2 3 -5 -6 -7 0
13 -14 -15 1 -2 -3 5 6 7 0
13 -14 -15 1 -2 -3 5 6 -7 0
13 -14 -15 1 -2 -3 5 -6 7 39 0
13 -14 -15 1 -2 -3 5 -6 -7 29 0
13 -14 -15 1 -2 -3 -5 6 7 51 0
13 -14 -15 1 -2 -3 -5 6 -7 26 0
13 -14 -15 1 -2 -3 -5 -6 7 0
13 -14 -15 1 -2 -3 -5 -6 -7 0
13 -14 -15 -1 2 3 5 6 7 0
13 -14 -15 -1 2 3 5 6 -7 41 0
13 -14 -15 -1 2 3 5 -6 7 39 0
13 -14 -15 -1 2 3 5 -6 -7 0
13 -14 -15 -1 2 3 -5 6 7 27 0
13 -14 -15 -1 2 3 -5 6 -7 0
13 -14 -15 -1 2 3 -5 -6 7 0
13 -14 -15 -1 2 3 -5 -6 -7 0
13 -14 -15 -1 2 -3 5 6 7 25 0
13 -14 -15 -1 2 -3 5 6 -7 51 0
13 -14 -15 -1 2 -3 5 -6 7 48 0
13 -14 -15 -1 2 -3 5 -6 -7 26 0
13 -14 -15 -1 2 -3 -5 6 7 39 0
13 -14 -15 -1 2 -3 -5 6 -7 0
13 -14 -15 -1 2 -3 -5 -6 7 0
13 -14 -15 -1 2 -3 -5 -6 -7 0
13 -14 -15 -1 -2 3 5 6 7 0
13 -14 -15 -1 -2 3 5 6 -7 33 0
13 -14 -15 -1 -2 3 5 -6 7 0
13 -14 -15 -1 -2 3 5 -6 -7 18 0
13 -14 -15 -1 -2 3 -5 6 7 0
13 -14 -15 -1 -2 3 -5 6 -7 0
13 -14 -15 -1 -2 3 -5 -6 7 0
13 -14 -15 -1 -2 3 -5 -6 -7 0
13 -14 -15 -1 -2 -3 5 6 7 49 0
13 -14 -15 -1 -2 -3 5 6 -7 37 0
13 -14 -15 -1 -2 -3 5 -6 7 37 0
13 -14 -15 -1 -2 -3 5 -6 -7 0
13 -14 -15 -1 -2 -3 -5 6 7 0
13 -14 -15 -1 -2 -3 -5 6 -7 0
13 -14 -15 -1 -2 -3 -5 -6 7 0
13 -14 -15 -1 -2 -3 -5 -6 -7 0
-13 14 15 1 2 3 5 6 7 0
-13 14 15 1 2 3 5 6 -7 0
-13 14 15 1 2 3 5 -6 7 0
-13 14 15 1 2 3 5 -6 -7 0
-13 14 15 1 2 3 -5 6 7 0
-13 14 15 1 2 3 -5 6 -7 0
-13 14 15 1 2 3 -5 -6 7 37 0
-13 14 15 1 2 3 -5 -6 -7 42 0
-13 14 15 1 2 -3 5 6 7 0
-13 14 15 1 2 -3 5 6 -7 0
-13 14 15 1 2 -3 5 -6 7 0
-13 14 15 1 2 -3 5 -6 -7 0
-13 14 15 1 2 -3 -5 6 7 25 0
-13 14 15 1 2 -3 -5 6 -7 22 0
-13 14 15 1 2 -3 -5 -6 7 42 0
-13 14 15 1 2 -3 -5 -6 -7 0
-13 14 15 1 -2 3 5 6 7 0
-13 14 15 1 -2 3 5 6 -7 0
-13 14 15 1 -2 3 5 -6 7 0
-13 14 15 1 -2 3 5 -6 -7 35 0
-13 14 15 1 -2 3 -5 6 7 27 0
-13 14 15 1 -2 3 -5 6 -7 20 0
-13 14 15 1 -2 3 -5 -6 7 33 0
-13 14 15 1 -2 3 -5 -6 -7 0
-13 14 15 1 -2 -3 5 6 7 0
-13 14 15 1 -2 -3 5 6 -7 0
-13 14 15 1 -2 -3 5 -6 7 0
-13 14 15 1 -2 -3 5 -6 -7 27 0
-13 14 15 1 -2 -3 -5 6 7 18 0
-13 14 15 1 -2 -3 -5 6 -7 26 0
-13 14 15 1 -2 -3 -5 -6 7 18 0
-13 14 15 1 -2 -3 -5 -6 -7 0
-13 14 15 -1 2 3 5 6 7 0
-13 14 15 -1 2 3 5 6 -7 0
-13 14 15 -1 2 3 5 -6 7 39 0
-13 14 15 -1 2 3 5 -6 -7 20 0
-13 14 15 -1 2 3 -5 6 7 27 0
-13 14 15 -1 2 3 -5 6 -7 49 0
-13 14 15 -1 2 3 -5 -6 7 32 0
-13 14 15 -1 2 3 -5 -6 -7 0
-13 14 15 -1 2 -3 5 6 7 0
-13 14 15 -1 2 -3 5 6 -7 34 0
-13 14 15 -1 2 -3 5 -6 7 48 0
-13 14 15 -1 2 -3 5 -6 -7 23 0
-13 14 15 -1 2 -3 -5 6 7 0
-13 14 15 -1 2 -3 -5 6 -7 26 0
-13 14 15 -1 2 -3 -5 -6 7 0
-13 14 15 -1 2 -3 -5 -6 -7 0
-13 14 15 -1 -2 3 5 6 7 0
-13 14 15 -1 -2 3 5 6 -7 0
-13 14 15 -1 -2 3 5 -6 7 27 0
-13 14 15 -1 -2 3 5 -6 -7 18 0
-13 14 15 -1 -2 3 -5 6 7 34 0
-13 14 15 -1 -2 3 -5 6 -7 0
-13 14 15 -1 -2 3 -5 -6 7 0
-13 14 15 -1 -2 3 -5 -6 -7 0
-13 14 15 -1 -2 -3 5 6 7 0
-13 14 15 -1 -2 -3 5 6 -7 43 0
-13 14 15 -1 -2 -3 5 -6 7 49 0
-13 14 15 -1 -2 -3 5 -6 -7 0
-13 14 15 -1 -2 -3 -5 6 7 0
-13 14 15 -1 -2 -3 -5 6 -7 0
-13 14 15 -1 -2 -3 -5 -6 7 0
-13 14 15 -1 -2 -3 -5 -6 -7 0
-13 14 -15 1 2 3 5 6 7 0
-13 14 -15 1 2 3 5 6 -7 0
-13 14 -15 1 2 3 5 -6 7 0
-13 14 -15 1 2 3 5 -6 -7 0
-13 14 -15 1 2 3 -5 6 7 0
-13 14 -15 1 2 3 -5 6 -7 0
-13 14 -15 1 2 3 -5 -6 7 40 0
-13 14 -15 1 2 3 -5 -6 -7 25 0
-13 14 -15 1 2 -3 5 6 7 0
-13 14 -15 1 2 -3 5 6 -7 0
-13 14 -15 1 2 -3 5 -6 7 0
-13 14 -15 1 2 -3 5 -6 -7 0
-13 14 -15 1 2 -3 -5 6 7 0
-13 14 -15 1 2 -3 -5 6 -7 0
-13 14 -15 1 2 -3 -5 -6 7 22 0
-13 14 -15 1 2 -3 -5 -6 -7 27 0
-13 14 -15 1 -2 3 5 6 7 0
-13 14 -15 1 -2 3 5 6 -7 0
-13 14 -15 1 -2 3 5 -6 7 0
-13 14 -15 1 -2 3 5 -6 -7 0
-13 14 -15 1 -2 3 -5 6 7 26 0
-13 14 -15 1 -2 3 -5 6 -7 43 0
-13 14 -15 1 -2 3 -5 -6 7 49 0
-13 14 -15 1 -2 3 -5 -6 -7 18 0
-13 14 -15 1 -2 -3 5 6 7 0
-13 14 -15 1 -2 -3 5 6 -7 0
-13 14 -15 1 -2 -3 5 -6 7 0
-13 14 -15 1 -2 -3 5 -6 -7 0
-13 14 -15 1 -2 -3 -5 6 7 34 0
-13 14 -15 1 -2 -3 -5 6 -7 23 0
-13 14 -15 1 -2 -3 -5 -6 7 24 0
-13 14 -15 1 -2 -3 -5 -6 -7 0
-13 14 -15 -1 2 3 5 6 7 0
-13 14 -15 -1 2 3 5 6 -7 0
-13 14 -15 -1 2 3 5 -6 7 0
-13 14 -15 -1 2 3 5 -6 -7 39 0
-13 14 -15 -1 2 3 -5 6 7 20 0
-13 14 -15 -1 2 3 -5 6 -7 37 0
-13 14 -15 -1 2 3 -5 -6 7 44 0
-13 14 -15 -1 2 3 -5 -6 -7 39 0
-13 14 -15 -1 2 -3 5 6 7 0
-13 14 -15 -1 2 -3 5 6 -7 0
-13 14 -15 -1 2 -3 5 -6 7 0
-13 14 -15 -1 2 -3 5 -6 -7 26 0
-13 14 -15 -1 2 -3 -5 6 7 20 0
-13 14 -15 -1 2 -3 -5 6 -7 20 0
-13 14 -15 -1 2 -3 -5 -6 7 0
-13 14 -15 -1 2 -3 -5 -6 -7 0
-13 14 -15 -1 -2 3 5 6 7 0
-13 14 -15 -1 -2 3 5 6 -7 0
-13 14 -15 -1 -2 3 5 -6 7 23 0
-13 14 -15 -1 -2 3 5 -6 -7 18 0
-13 14 -15 -1 -2 3 -5 6 7 38 0
-13 14 -15 -1 -2 3 -5 6 -7 40 0
-13 14 -15 -1 -2 3 -5 -6 7 29 0
-13 14 -15 -1 -2 3 -5 -6 -7 0
-13 14 -15 -1 -2 -3 5 6 7 37 0
-13 14 -15 -1 -2 -3 5 6 -7 37 0
-13 14 -15 -1 -2 -3 5 -6 7 0
-13 14 -15 -1 -2 -3 5 -6 -7 42 0
-13 14 -15 -1 -2 -3 -5 6 7 0
-13 14 -15 -1 -2 -3 -5 6 -7 25 0
-13 14 -15 -1 -2 -3 -5 -6 7 0
-13 14 -15 -1 -2 -3 -5 -6 -7 0
-13 -14 15 1 2 3 5 6 7 0
-13 -14 15 1 2 3 5 6 -7 0
-13 -14 15 1 2 3 5 -6 7 0
-13 -14 15 1 2 3 5 -6 -7 0
-13 -14 15 1 2 3 -5 6 7 0
-13 -14 15 1 2 3 -5 6 -7 0
-13 -14 15 1 2 3 -5 -6 7 0
-13 -14 15 1 2 3 -5 -6 -7 25 0
-13 -14 15 1 2 -3 5 6 7 0
-13 -14 15 1 2 -3 5 6 -7 0
-13 -14 15 1 2 -3 5 -6 7 0
-13 -14 15 1 2 -3 5 -6 -7 0
-13 -14 15 1 2 -3 -5 6 7 0
-13 -14 15 1 2 -3 -5 6 -7 0
-13 -14 15 1 2 -3 -5 -6 7 0
-13 -14 15 1 2 -3 -5 -6 -7 23 0
-13 -14 15 1 -2 3 5 6 7 0
-13 -14 15 1 -2 3 5 6 -7 0
-13 -14 15 1 -2 3 5 -6 7 0
-13 -14 15 1 -2 3 5 -6 -7 0
-13 -14 15 1 -2 3 -5 6 7 0
-13 -14 15 1 -2 3 -5 6 -7 0
-13 -14 15 1 -2 3 -5 -6 7 0
-13 -14 15 1 -2 3 -5 -6 -7 0
-13 -14 15 1 -2 -3 5 6 7 0
-13 -14 15 1 -2 -3 5 6 -7 0
-13 -14 15 1 -2 -3 5 -6 7 0
-13 -14 15 1 -2 -3 5 -6 -7 0
-13 -14 15 1 -2 -3 -5 6 7 0
-13 -14 15 1 -2 -3 -5 6 -7 0
-13 -14 15 1 -2 -3 -5 -6 7 0
-13 -14 15 1 -2 -3 -5 -6 -7 22 0
-13 -14 15 -1 2 3 5 6 7 0
-13 -14 15 -1 2 3 5 6 -7 0
-13 -14 15 -1 2 3 5 -6 7 0
-13 -14 15 -1 2 3 5 -6 -7 0
-13 -14 15 -1 2 3 -5 6 7 0
-13 -14 15 -1 2 3 -5 6 -7 49 0
-13 -14 15 -1 2 3 -5 -6 7 36 0
-13 -14 15 -1 2 3 -5 -6 -7 0
-13 -14 15 -1 2 -3 5 6 7 0
-13 -14 15 -1 2 -3 5 6 -7 0
-13 -14 15 -1 2 -3 5 -6 7 0
-13 -14 15 -1 2 -3 5 -6 -7 0
-13 -14 15 -1 2 -3 -5 6 7 18 0
-13 -14 15 -1 2 -3 -5 6 -7 27 0
-13 -14 15 -1 2 -3 -5 -6 7 24 0
-13 -14 15 -1 2 -3 -5 -6 -7 37 0
-13 -14 15 -1 -2 3 5 6 7 0
-13 -14 15 -1 -2 3 5 6 -7 0
-13 -14 15 -1 -2 3 5 -6 7 0
-13 -14 15 -1 -2 3 5 -6 -7 0
-13 -14 15 -1 -2 3 -5 6 7 24 0
-13 -14 15 -1 -2 3 -5 6 -7 33 0
-13 -14 15 -1 -2 3 -5 -6 7 26 0
-13 -14 15 -1 -2 3 -5 -6 -7 40 0
-13 -14 15 -1 -2 -3 5 6 7 0
-13 -14 15 -1 -2 -3 5 6 -7 40 0
-13 -14 15 -1 -2 -3 5 -6 7 37 0
-13 -14 15 -1 -2 -3 5 -6 -7 31 0
-13 -14 15 -1 -2 -3 -5 6 7 21 0
-13 -14 15 -1 -2 -3 -5 6 -7 31 0
-13 -14 15 -1 -2 -3 -5 -6 7 26 0
-13 -14 15 -1 -2 -3 -5 -6 -7 0
-13 -14 -15 1 2 3 5 6 7 0
-13 -14 -15 1 2 3 5 6 -7 0
-13 -14 -15 1 2 3 5 -6 7 0
-13 -14 -15 1 2 3 5 -6 -7 0
-13 -14 -15 1 2 3 -5 6 7 0
-13 -14 -15 1 2 3 -5 6 -7 0
-13 -14 -15 1 2 3 -5 -6 7 0
-13 -14 -15 1 2 3 -5 -6 -7 25 0
-13 -14 -15 1 2 -3 5 6 7 0
-13 -14 -15 1 2 -3 5 6 -7 0
-13 -14 -15 1 2 -3 5 -6 7 0
-13 -14 -15 1 2 -3 5 -6 -7 0
-13 -14 -15 1 2 -3 -5 6 7 0
-13 -14 -15 1 2 -3 -5 6 -7 0
-13 -14 -15 1 2 -3 -5 -6 7 0
-13 -14 -15 1 2 -3 -5 -6 -7 0
-13 -14 -15 1 -2 3 5 6 7 0
-13 -14 -15 1 -2 3 5 6 -7 0
-13 -14 -15 1 -2 3 5 -6 7 0
-13 -14 -15 1 -2 3 5 -6 -7 0
-13 -14 -15 1 -2 3 -5 6 7 0
-13 -14 -15 1 -2 3 -5 6 -7 0
-13 -14 -15 1 -2 3 -5 -6 7 0
-13 -14 -15 1 -2 3 -5 -6 -7 24 0
-13 -14 -15 1 -2 -3 5 6 7 0
-13 -14 -15 1 -2 -3 5 6 -7 0
-13 -14 -15 1 -2 -3 5 -6 7 0
-13 -14 -15 1 -2 -3 5 -6 -7 0
-13 -14 -15 1 -2 -3 -5 6 7 0
-13 -14 -15 1 -2 -3 -5 6 -7 0
-13 -14 -15 1 -2 -3 -5 -6 7 0
-13 -14 -15 1 -2 -3 -5 -6 -7 31 0
-13 -14 -15 -1 2 3 5 6 7 0
-13 -14 -15 -1 2 3 5 6 -7 0
-13 -14 -15 -1 2 3 5 -6 7 0
-13 -14 -15 -1 2 3 5 -6 -7 0
-13 -14 -15 -1 2 3 -5 6 7 0
-13 -14 -15 -1 2 3 -5 6 -7 0
-13 -14 -15 -1 2 3 -5 -6 7 0
-13 -14 -15 -1 2 3 -5 -6 -7 47 0
-13 -14 -15 -1 2 -3 5 6 7 0
-13 -14 -15 -1 2 -3 5 6 -7 0
-13 -14 -15 -1 2 -3 5 -6 7 0
-13 -14 -15 -1 2 -3 5 -6 -7 0
-13 -14 -15 -1 2 -3 -5 6 7 0
-13 -14 -15 -1 2 -3 -5 6 -7 26 0
-13 -14 -15 -1 2 -3 -5 -6 7 18 0
-13 -14 -15 -1 2 -3 -5 -6 -7 45 0
-13 -14 -15 -1 -2 3 5 6 7 0
-13 -14 -15 -1 -2 3 5 6 -7 0
-13 -14 -15 -1 -2 3 5 -6 7 0
-13 -14 -15 -1 -2 3 5 -6 -7 0
-13 -14 -15 -1 -2 3 -5 6 7 0
-13 -14 -15 -1 -2 3 -5 6 -7 43 0
-13 -14 -15 -1 -2 3 -5 -6 7 20 0
-13 -14 -15 -1 -2 3 -5 -6 -7 50 0
-13 -14 -15 -1 -2 -3 5 6 7 0
-13 -14 -15 -1 -2 -3 5 6 -7 0
-13 -14 -15 -1 -2 -3 5 -6 7 37 0
-13 -14 -15 -1 -2 -3 5 -6 -7 25 0
-13 -14 -15 -1 -2 -3 -5 6 7 42 0
-13 -14 -15 -1 -2 -3 -5 6 -7 42 0
-13 -14 -15 -1 -2 -3 -5 -6 7 30 0
-13 -14 -15 -1 -2 -3 -5 -6 -7 17 0
52 53 54 9 10 11 13 14 15 56 0
52 53 54 9 10 11 13 14 -15 55 0
52 53 54 9 10 11 13 -14 15 0
52 53 54 9 10 11 13 -14 -15 0
52 53 54 9 10 11 -13 14 15 0
52 53 54 9 10 11 -13 14 -15 0
52 53 54 9 10 11 -13 -14 15 0
52 53 54 9 10 11 -13 -14 -15 0
52 53 54 9 10 -11 13 14 15 58 0
52 53 54 9 10 -11 13 14 -15 83 0
52 53 54 9 10 -11 13 -14 15 0
52 53 54 9 10 -11 13 -14 -15 0
52 53 54 9 10 -11 -13 14 15 0
52 53 54 9 10 -11 -13 14 -15 0
52 53 54 9 10 -11 -13 -14 15 0
52 53 54 9 10 -11 -13 -14 -15 0
52 53 54 9 -10 11 13 14 15 56 0
52 53 54 9 -10 11 13 14 -15 84 0
52 53 54 9 -10 11 13 -14 15 0
52 53 54 9 -10 11 13 -14 -15 0
52 53 54 9 -10 11 -13 14 15 0
52 53 54 9 -10 11 -13 14 -15 0
52 53 54 9 -10 11 -13 -14 15 0
52 53 54 9 -10 11 -13 -14 -15 0
52 53 54 9 -10 -11 13 14 15 56 0
52 53 54 9 -10 -11 13 14 -15 0
52 53 54 9 -10 -11 13 -14 15 0
52 53 54 9 -10 -11 13 -14 -15 0
52 53 54 9 -10 -11 -13 14 15 0
52 53 54 9 -10 -11 -13 14 -15 0
52 53 54 9 -10 -11 -13 -14 15 0
52 53 54 9 -10 -11 -13 -14 -15 0
52 53 54 -9 10 11 13 14 15 56 0
52 53 54 -9 10 11 13 14 -15 0
52 53 54 -9 10 11 13 -14 15 0
52 53 54 -9 10 11 13 -14 -15 0
52 53 54 -9 10 11 -13 14 15 0
52 53 54 -9 10 11 -13 14 -15 0
52 53 54 -9 10 11 -13 -14 15 0
52 53 54 -9 10 11 -13 -14 -15 0
52 53 54 -9 10 -11 13 14 15 59 0
52 53 54 -9 10 -11 13 14 -15 0
52 53 54 -9 10 -11 13 -14 15 0
52 53 54 -9 10 -11 13 -14 -15 0
52 53 54 -9 10 -11 -13 14 15 0
52 53 54 -9 10 -11 -13 14 -15 0
52 53 54 -9 10 -11 -13 -14 15 0
52 53 54 -9 10 -11 -13 -14 -15 0
52 53 54 -9 -10 11 13 14 15 60 0
52 53 54 -9 -10 11 13 14 -15 0
52 53 54 -9 -10 11 13 -14 15 0
52 53 54 -9 -10 11 13 -14 -15 0
52 53 54 -9 -10 11 -13 14 15 0
52 53 54 -9 -10 11 -13 14 -15 0
52 53 54 -9 -10 11 -13 -14 15 0
52 53 54 -9 -10 11 -13 -14 -15 0
52 53 54 -9 -10 -11 13 14 15 61 0
52 53 54 -9 -10 -11 13 14 -15 0
52 53 54 -9 -10 -11 13 -14 15 0
52 53 54 -9 -10 -11 13 -14 -15 0
52 53 54 -9 -10 -11 -13 14 15 0
52 53 54 -9 -10 -11 -13 14 -15 0
52 53 54 -9 -10 -11 -13 -14 15 0
52 53 54 -9 -10 -11 -13 -14 -15 0
52 53 -54 9 10 11 13 14 15 0
52 53 -54 9 10 11 13 14 -15 62 0
52 53 -54 9 10 11 13 -14 15 63 0
52 53 -54 9 10 11 13 -14 -15 61 0
52 53 -54 9 10 11 -13 14 15 0
52 53 -54 9 10 11 -13 14 -15 0
52 53 -54 9 10 11 -13 -14 15 0
52 53 -54 9 10 11 -13 -14 -15 0
52 53 -54 9 10 -11 13 14 15 64 0
52 53 -54 9 10 -11 13 14 -15 87 0
52 53 -54 9 10 -11 13 -14 15 69 0
52 53 -54 9 10 -11 13 -14 -15 0
52 53 -54 9 10 -11 -13 14 15 0
52 53 -54 9 10 -11 -13 14 -15 0
52 53 -54 9 10 -11 -13 -14 15 0
52 53 -54 9 10 -11 -13 -14 -15 0
52 53 -54 9 -10 11 13 14 15 0
52 53 -54 9 -10 11 13 14 -15 59 0
52 53 -54 9 -10 11 13 -14 15 0
52 53 -54 9 -10 11 13 -14 -15 0
52 53 -54 9 -10 11 -13 14 15 0
52 53 -54 9 -10 11 -13 14 -15 0
52 53 -54 9 -10 11 -13 -14 15 0
52 53 -54 9 -10 11 -13 -14 -15 0
52 53 -54 9 -10 -11 13 14 15 0
52 53 -54 9 -10 -11 13 14 -15 56 0
52 53 -54 9 -10 -11 13 -14 15 0
52 53 -54 9 -10 -11 13 -14 -15 0
52 53 -54 9 -10 -11 -13 14 15 0
52 53 -54 9 -10 -11 -13 14 -15 0
52 53 -54 9 -10 -11 -13 -14 15 0
52 53 -54 9 -10 -11 -13 -14 -15 0
52 53 -54 -9 10 11 13 14 15 0
52 53 -54 -9 10 11 13 14 -15 56 0
52 53 -54 -9 10 11 13 -14 15 85 0
52 53 -54 -9 10 11 13 -14 -15 0
52 53 -54 -9 10 11 -13 14 15 0
52 53 -54 -9 10 11 -13 14 -15 0
52 53 -54 -9 10 11 -13 -14 15 0
52 53 -54 -9 10 11 -13 -14 -15 0
52 53 -54 -9 10 -11 13 14 15 80 0
52 53 -54 -9 10 -11 13 14 -15 65 0
52 53 -54 -9 10 -11 13 -14 15 0
52 53 -54 -9 10 -11 13 -14 -15 0
52 53 -54 -9 10 -11 -13 14 15 0
52 53 -54 -9 10 -11 -13 14 -15 0
52 53 -54 -9 10 -11 -13 -14 15 0
52 53 -54 -9 10 -11 -13 -14 -15 0
52 53 -54 -9 -10 11 13 14 15 95 0
52 53 -54 -9 -10 11 13 14 -15 0
52 53 -54 -9 -10 11 13 -14 15 0
52 53 -54 -9 -10 11 13 -14 -15 0
52 53 -54 -9 -10 11 -13 14 15 0
52 53 -54 -9 -10 11 -13 14 -15 0
52 53 -54 -9 -10 11 -13 -14 15 0
52 53 -54 -9 -10 11 -13 -14 -15 0
52 53 -54 -9 -10 -11 13 14 15 96 0
52 53 -54 -9 -10 -11 13 14 -15 0
52 53 -54 -9 -10 -11 13 -14 15 0
52 53 -54 -9 -10 -11 13 -14 -15 0
52 53 -54 -9 -10 -11 -13 14 15 0
52 53 -54 -9 -10 -11 -13 14 -15 0
52 53 -54 -9 -10 -11 -13 -14 15 0
52 53 -54 -9 -10 -11 -13 -14 -15 0
52 -53 54 9 10 11 13 14 15 0
52 -53 54 9 10 11 13 14 -15 0
52 -53 54 9 10 11 13 -14 15 66 0
52 -53 54 9 10 11 13 -14 -15 96 0
52 -53 54 9 10 11 -13 14 15 56 0
52 -53 54 9 10 11 -13 14 -15 0
52 -53 54 9 10 11 -13 -14 15 0
52 -53 54 9 10 11 -13 -14 -15 0
52 -53 54 9 10 -11 13 14 15 0
52 -53 54 9 10 -11 13 14 -15 0
52 -53 54 9 10 -11 13 -14 15 98 0
52 -53 54 9 10 -11 13 -14 -15 56 0
52 -53 54 9 10 -11 -13 14 15 88 0
52 -53 54 9 10 -11 -13 14 -15 0
52 -53 54 9 10 -11 -13 -14 15 0
52 -53 54 9 10 -11 -13 -14 -15 0
52 -53 54 9 -10 11 13 14 15 0
52 -53 54 9 -10 11 13 14 -15 84 0
52 -53 54 9 -10 11 13 -14 15 56 0
52 -53 54 9 -10 11 13 -14 -15 69 0
52 -53 54 9 -10 11 -13 14 15 0
52 -53 54 9 -10 11 -13 14 -15 0
52 -53 54 9 -10 11 -13 -14 15 0
52 -53 54 9 -10 11 -13 -14 -15 0
52 -53 54 9 -10 -11 13 14 15 0
52 -53 54 9 -10 -11 13 14 -15 0
52 -53 54 9 -10 -11 13 -14 15 94 0
52 -53 54 9 -10 -11 13 -14 -15 0
52 -53 54 9 -10 -11 -13 14 15 0
52 -53 54 9 -10 -11 -13 14 -15 0
52 -53 54 9 -10 -11 -13 -14 15 0
52 -53 54 9 -10 -11 -13 -14 -15 0
52 -53 54 -9 10 11 13 14 15 0
52 -53 54 -9 10 11 13 14 -15 0
52 -53 54 -9 10 11 13 -14 15 75 0
52 -53 54 -9 10 11 13 -14 -15 86 0
52 -53 54 -9 10 11 -13 14 15 0
52 -53 54 -9 10 11 -13 14 -15 0
52 -53 54 -9 10 11 -13 -14 15 0
52 -53 54 -9 10 11 -13 -14 -15 0
52 -53 54 -9 10 -11 13 14 15 0
52 -53 54 -9 10 -11 13 14 -15 65 0
52 -53 54 -9 10 -11 13 -14 15 56 0
52 -53 54 -9 10 -11 13 -14 -15 0
52 -53 54 -9 10 -11 -13 14 15 0
52 -53 54 -9 10 -11 -13 14 -15 0
52 -53 54 -9 10 -11 -13 -14 15 0
52 -53 54 -9 10 -11 -13 -14 -15 0
52 -53 54 -9 -10 11 13 14 15 0
52 -53 54 -9 -10 11 13 14 -15 56 0
52 -53 54 -9 -10 11 13 -14 15 67 0
52 -53 54 -9 -10 11 13 -14 -15 0
52 -53 54 -9 -10 11 -13 14 15 0
52 -53 54 -9 -10 11 -13 14 -15 0
52 -53 54 -9 -10 11 -13 -14 15 0
52 -53 54 -9 -10 11 -13 -14 -15 0
52 -53 54 -9 -10 -11 13 14 15 0
52 -53 54 -9 -10 -11 13 14 -15 96 0
52 -53 54 -9 -10 -11 13 -14 15 84 0
52 -53 54 -9 -10 -11 13 -14 -15 0
52 -53 54 -9 -10 -11 -13 14 15 0
52 -53 54 -9 -10 -11 -13 14 -15 0
52 -53 54 -9 -10 -11 -13 -14 15 0
52 -53 54 -9 -10 -11 -13 -14 -15 0
52 -53 -54 9 10 11 13 14 15 0
52 -53 -54 9 10 11 13 14 -15 0
52 -53 -54 9 10 11 13 -14 15 0
52 -53 -54 9 10 11 13 -14 -15 0
52 -53 -54 9 10 11 -13 14 15 0
52 -53 -54 9 10 11 -13 14 -15 70 0
52 -53 -54 9 10 11 -13 -14 15 0
52 -53 -54 9 10 11 -13 -14 -15 0
52 -53 -54 9 10 -11 13 14 15 0
52 -53 -54 9 10 -11 13 14 -15 0
52 -53 -54 9 10 -11 13 -14 15 0
52 -53 -54 9 10 -11 13 -14 -15 0
52 -53 -54 9 10 -11 -13 14 15 69 0
52 -53 -54 9 10 -11 -13 14 -15 86 0
52 -53 -54 9 10 -11 -13 -14 15 0
52 -53 -54 9 10 -11 -13 -14 -15 0
52 -53 -54 9 -10 11 13 14 15 0
52 -53 -54 9 -10 11 13 14 -15 0
52 -53 -54 9 -10 11 13 -14 15 0
52 -53 -54 9 -10 11 13 -14 -15 98 0
52 -53 -54 9 -10 11 -13 14 15 96 0
52 -53 -54 9 -10 11 -13 14 -15 0
52 -53 -54 9 -10 11 -13 -14 15 0
52 -53 -54 9 -10 11 -13 -14 -15 0
52 -53 -54 9 -10 -11 13 14 15 0
52 -53 -54 9 -10 -11 13 14 -15 0
52 -53 -54 9 -10 -11 13 -14 15 73 0
52 -53 -54 9 -10 -11 13 -14 -15 77 0
52 -53 -54 9 -10 -11 -13 14 15 96 0
52 -53 -54 9 -10 -11 -13 14 -15 0
52 -53 -54 9 -10 -11 -13 -14 15 0
52 -53 -54 9 -10 -11 -13 -14 -15 0
52 -53 -54 -9 10 11 13 14 15 0
52 -53 -54 -9 10 11 13 14 -15 0
52 -53 -54 -9 10 11 13 -14 15 72 0
52 -53 -54 -9 10 11 13 -14 -15 92 0
52 -53 -54 -9 10 11 -13 14 15 0
52 -53 -54 -9 10 11 -13 14 -15 0
52 -53 -54 -9 10 11 -13 -14 15 0
52 -53 -54 -9 10 11 -13 -14 -15 0
52 -53 -54 -9 10 -11 13 14 15 0
52 -53 -54 -9 10 -11 13 14 -15 0
52 -53 -54 -9 10 -11 13 -14 15 0
52 -53 -54 -9 10 -11 13 -14 -15 99 0
52 -53 -54 -9 10 -11 -13 14 15 74 0
52 -53 -54 -9 10 -11 -13 14 -15 0
52 -53 -54 -9 10 -11 -13 -14 15 0
52 -53 -54 -9 10 -11 -13 -14 -15 0
52 -53 -54 -9 -10 11 13 14 15 0
52 -53 -54 -9 -10 11 13 14 -15 0
52 -53 -54 -9 -10 11 13 -14 15 95 0
52 -53 -54 -9 -10 11 13 -14 -15 76 0
52 -53 -54 -9 -10 11 -13 14 15 0
52 -53 -54 -9 -10 11 -13 14 -15 0
52 -53 -54 -9 -10 11 -13 -14 15 0
52 -53 -54 -9 -10 11 -13 -14 -15 0
52 -53 -54 -9 -10 -11 13 14 15 0
52 -53 -54 -9 -10 -11 13 14 -15 61 0
52 -53 -54 -9 -10 -11 13 -14 15 96 0
52 -53 -54 -9 -10 -11 13 -14 -15 0
52 -53 -54 -9 -10 -11 -13 14 15 0
52 -53 -54 -9 -10 -11 -13 14 -15 0
52 -53 -54 -9 -10 -11 -13 -14 15 0
52 -53 -54 -9 -10 -11 -13 -14 -15 0
-52 53 54 9 10 11 13 14 15 0
-52 53 54 9 10 11 13 14 -15 0
-52 53 54 9 10 11 13 -14 15 0
-52 53 54 9 10 11 13 -14 -15 0
-52 53 54 9 10 11 -13 14 15 0
-52 53 54 9 10 11 -13 14 -15 91 0
-52 53 54 9 10 11 -13 -14 15 0
-52 53 54 9 10 11 -13 -14 -15 0
-52 53 54 9 10 -11 13 14 15 0
-52 53 54 9 10 -11 13 14 -15 0
-52 53 54 9 10 -11 13 -14 15 0
-52 53 54 9 10 -11 13 -14 -15 0
-52 53 54 9 10 -11 -13 14 15 76 0
-52 53 54 9 10 -11 -13 14 -15 65 0
-52 53 54 9 10 -11 -13 -14 15 0
-52 53 54 9 10 -11 -13 -14 -15 0
-52 53 54 9 -10 11 13 14 15 0
-52 53 54 9 -10 11 13 14 -15 0
-52 53 54 9 -10 11 13 -14 15 0
-52 53 54 9 -10 11 13 -14 -15 0
-52 53 54 9 -10 11 -13 14 15 61 0
-52 53 54 9 -10 11 -13 14 -15 77 0
-52 53 54 9 -10 11 -13 -14 15 0
-52 53 54 9 -10 11 -13 -14 -15 0
-52 53 54 9 -10 -11 13 14 15 0
-52 53 54 9 -10 -11 13 14 -15 0
-52 53 54 9 -10 -11 13 -14 15 0
-52 53 54 9 -10 -11 13 -14 -15 91 0
-52 53 54 9 -10 -11 -13 14 15 61 0
-52 53 54 9 -10 -11 -13 14 -15 80 0
-52 53 54 9 -10 -11 -13 -14 15 0
-52 53 54 9 -10 -11 -13 -14 -15 0
-52 53 54 -9 10 11 13 14 15 0
-52 53 54 -9 10 11 13 14 -15 0
-52 53 54 -9 10 11 13 -14 15 0
-52 53 54 -9 10 11 13 -14 -15 0
-52 53 54 -9 10 11 -13 14 15 56 0
-52 53 54 -9 10 11 -13 14 -15 84 0
-52 53 54 -9 10 11 -13 -14 15 0
-52 53 54 -9 10 11 -13 -14 -15 0
-52 53 54 -9 10 -11 13 14 15 0
-52 53 54 -9 10 -11 13 14 -15 0
-52 53 54 -9 10 -11 13 -14 15 0
-52 53 54 -9 10 -11 13 -14 -15 68 0
-52 53 54 -9 10 -11 -13 14 15 63 0
-52 53 54 -9 10 -11 -13 14 -15 0
-52 53 54 -9 10 -11 -13 -14 15 0
-52 53 54 -9 10 -11 -13 -14 -15 0
-52 53 54 -9 -10 11 13 14 15 0
-52 53 54 -9 -10 11 13 14 -15 0
-52 53 54 -9 -10 11 13 -14 15 71 0
-52 53 54 -9 -10 11 13 -14 -15 93 0
-52 53 54 -9 -10 11 -13 14 15 86 0
-52 53 54 -9 -10 11 -13 14 -15 0
-52 53 54 -9 -10 11 -13 -14 15 0
-52 53 54 -9 -10 11 -13 -14 -15 0
-52 53 54 -9 -10 -11 13 14 15 0
-52 53 54 -9 -10 -11 13 14 -15 0
-52 53 54 -9 -10 -11 13 -14 15 65 0
-52 53 54 -9 -10 -11 13 -14 -15 56 0
-52 53 54 -9 -10 -11 -13 14 15 76 0
-52 53 54 -9 -10 -11 -13 14 -15 0
-52 53 54 -9 -10 -11 -13 -14 15 0
-52 53 54 -9 -10 -11 -13 -14 -15 0
-52 53 -54 9 10 11 13 14 15 0
-52 53 -54 9 10 11 13 14 -15 0
-52 53 -54 9 10 11 13 -14 15 0
-52 53 -54 9 10 11 13 -14 -15 0
-52 53 -54 9 10 11 -13 14 15 0
-52 53 -54 9 10 11 -13 14 -15 73 0
-52 53 -54 9 10 11 -13 -14 15 63 0
-52 53 -54 9 10 11 -13 -14 -15 74 0
-52 53 -54 9 10 -11 13 14 15 0
-52 53 -54 9 10 -11 13 14 -15 0
-52 53 -54 9 10 -11 13 -14 15 0
-52 53 -54 9 10 -11 13 -14 -15 0
-52 53 -54 9 10 -11 -13 14 15 0
-52 53 -54 9 10 -11 -13 14 -15 91 0
-52 53 -54 9 10 -11 -13 -14 15 77 0
-52 53 -54 9 10 -11 -13 -14 -15 0
-52 53 -54 9 -10 11 13 14 15 0
-52 53 -54 9 -10 11 13 14 -15 0
-52 53 -54 9 -10 11 13 -14 15 0
-52 53 -54 9 -10 11 13 -14 -15 0
-52 53 -54 9 -10 11 -13 14 15 0
-52 53 -54 9 -10 11 -13 14 -15 91 0
-52 53 -54 9 -10 11 -13 -14 15 84 0
-52 53 -54 9 -10 11 -13 -14 -15 0
-52 53 -54 9 -10 -11 13 14 15 0
-52 53 -54 9 -10 -11 13 14 -15 0
-52 53 -54 9 -10 -11 13 -14 15 0
-52 53 -54 9 -10 -11 13 -14 -15 0
-52 53 -54 9 -10 -11 -13 14 15 0
-52 53 -54 9 -10 -11 -13 14 -15 61 0
-52 53 -54 9 -10 -11 -13 -14 15 78 0
-52 53 -54 9 -10 -11 -13 -14 -15 0
-52 53 -54 -9 10 11 13 14 15 0
-52 53 -54 -9 10 11 13 14 -15 0
-52 53 -54 -9 10 11 13 -14 15 0
-52 53 -54 -9 10 11 13 -14 -15 0
-52 53 -54 -9 10 11 -13 14 15 0
-52 53 -54 -9 10 11 -13 14 -15 97 0
-52 53 -54 -9 10 11 -13 -14 15 84 0
-52 53 -54 -9 10 11 -13 -14 -15 0
-52 53 -54 -9 10 -11 13 14 15 0
-52 53 -54 -9 10 -11 13 14 -15 0
-52 53 -54 -9 10 -11 13 -14 15 0
-52 53 -54 -9 10 -11 13 -14 -15 0
-52 53 -54 -9 10 -11 -13 14 15 86 0
-52 53 -54 -9 10 -11 -13 14 -15 99 0
-52 53 -54 -9 10 -11 -13 -14 15 0
-52 53 -54 -9 10 -11 -13 -14 -15 0
-52 53 -54 -9 -10 11 13 14 15 0
-52 53 -54 -9 -10 11 13 14 -15 0
-52 53 -54 -9 -10 11 13 -14 15 0
-52 53 -54 -9 -10 11 13 -14 -15 0
-52 53 -54 -9 -10 11 -13 14 15 92 0
-52 53 -54 -9 -10 11 -13 14 -15 77 0
-52 53 -54 -9 -10 11 -13 -14 15 0
-52 53 -54 -9 -10 11 -13 -14 -15 0
-52 53 -54 -9 -10 -11 13 14 15 0
-52 53 -54 -9 -10 -11 13 14 -15 0
-52 53 -54 -9 -10 -11 13 -14 15 0
-52 53 -54 -9 -10 -11 13 -14 -15 0
-52 53 -54 -9 -10 -11 -13 14 15 81 0
-52 53 -54 -9 -10 -11 -13 14 -15 88 0
-52 53 -54 -9 -10 -11 -13 -14 15 0
-52 53 -54 -9 -10 -11 -13 -14 -15 0
-52 -53 54 9 10 11 13 14 15 0
-52 -53 54 9 10 11 13 14 -15 0
-52 -53 54 9 10 11 13 -14 15 0
-52 -53 54 9 10 11 13 -14 -15 0
-52 -53 54 9 10 11 -13 14 15 0
-52 -53 54 9 10 11 -13 14 -15 0
-52 -53 54 9 10 11 -13 -14 15 66 0
-52 -53 54 9 10 11 -13 -14 -15 65 0
-52 -53 54 9 10 -11 13 14 15 0
-52 -53 54 9 10 -11 13 14 -15 0
-52 -53 54 9 10 -11 13 -14 15 0
-52 -53 54 9 10 -11 13 -14 -15 0
-52 -53 54 9 10 -11 -13 14 15 0
-52 -53 54 9 10 -11 -13 14 -15 0
-52 -53 54 9 10 -11 -13 -14 15 91 0
-52 -53 54 9 10 -11 -13 -14 -15 91 0
-52 -53 54 9 -10 11 13 14 15 0
-52 -53 54 9 -10 11 13 14 -15 0
-52 -53 54 9 -10 11 13 -14 15 0
-52 -53 54 9 -10 11 13 -14 -15 0
-52 -53 54 9 -10 11 -13 14 15 0
-52 -53 54 9 -10 11 -13 14 -15 0
-52 -53 54 9 -10 11 -13 -14 15 97 0
-52 -53 54 9 -10 11 -13 -14 -15 96 0
-52 -53 54 9 -10 -11 13 14 15 0
-52 -53 54 9 -10 -11 13 14 -15 0
-52 -53 54 9 -10 -11 13 -14 15 0
-52 -53 54 9 -10 -11 13 -14 -15 0
-52 -53 54 9 -10 -11 -13 14 15 0
-52 -53 54 9 -10 -11 -13 14 -15 80 0
-52 -53 54 9 -10 -11 -13 -14 15 89 0
-52 -53 54 9 -10 -11 -13 -14 -15 88 0
-52 -53 54 -9 10 11 13 14 15 0
-52 -53 54 -9 10 11 13 14 -15 0
-52 -53 54 -9 10 11 13 -14 15 0
-52 -53 54 -9 10 11 13 -14 -15 0
-52 -53 54 -9 10 11 -13 14 15 0
-52 -53 54 -9 10 11 -13 14 -15 0
-52 -53 54 -9 10 11 -13 -14 15 59 0
-52 -53 54 -9 10 11 -13 -14 -15 86 0
-52 -53 54 -9 10 -11 13 14 15 0
-52 -53 54 -9 10 -11 13 14 -15 0
-52 -53 54 -9 10 -11 13 -14 15 0
-52 -53 54 -9 10 -11 13 -14 -15 0
-52 -53 54 -9 10 -11 -13 14 15 0
-52 -53 54 -9 10 -11 -13 14 -15 68 0
-52 -53 54 -9 10 -11 -13 -14 15 96 0
-52 -53 54 -9 10 -11 -13 -14 -15 0
-52 -53 54 -9 -10 11 13 14 15 0
-52 -53 54 -9 -10 11 13 14 -15 0
-52 -53 54 -9 -10 11 13 -14 15 0
-52 -53 54 -9 -10 11 13 -14 -15 0
-52 -53 54 -9 -10 11 -13 14 15 0
-52 -53 54 -9 -10 11 -13 14 -15 91 0
-52 -53 54 -9 -10 11 -13 -14 15 91 0
-52 -53 54 -9 -10 11 -13 -14 -15 0
-52 -53 54 -9 -10 -11 13 14 15 0
-52 -53 54 -9 -10 -11 13 14 -15 0
-52 -53 54 -9 -10 -11 13 -14 15 0
-52 -53 54 -9 -10 -11 13 -14 -15 0
-52 -53 54 -9 -10 -11 -13 14 15 76 0
-52 -53 54 -9 -10 -11 -13 14 -15 69 0
-52 -53 54 -9 -10 -11 -13 -14 15 82 0
-52 -53 54 -9 -10 -11 -13 -14 -15 0
-52 -53 -54 9 10 11 13 14 15 0
-52 -53 -54 9 10 11 13 14 -15 0
-52 -53 -54 9 10 11 13 -14 15 0
-52 -53 -54 9 10 11 13 -14 -15 0
-52 -53 -54 9 10 11 -13 14 15 0
-52 -53 -54 9 10 11 -13 14 -15 0
-52 -53 -54 9 10 11 -13 -14 15 0
-52 -53 -54 9 10 11 -13 -14 -15 79 0
-52 -53 -54 9 10 -11 13 14 15 0
-52 -53 -54 9 10 -11 13 14 -15 0
-52 -53 -54 9 10 -11 13 -14 15 0
-52 -53 -54 9 10 -11 13 -14 -15 0
-52 -53 -54 9 10 -11 -13 14 15 0
-52 -53 -54 9 10 -11 -13 14 -15 0
-52 -53 -54 9 10 -11 -13 -14 15 0
-52 -53 -54 9 10 -11 -13 -14 -15 77 0
-52 -53 -54 9 -10 11 13 14 15 0
-52 -53 -54 9 -10 11 13 14 -15 0
-52 -53 -54 9 -10 11 13 -14 15 0
-52 -53 -54 9 -10 11 13 -14 -15 0
-52 -53 -54 9 -10 11 -13 14 15 0
-52 -53 -54 9 -10 11 -13 14 -15 0
-52 -53 -54 9 -10 11 -13 -14 15 0
-52 -53 -54 9 -10 11 -13 -14 -15 61 0
-52 -53 -54 9 -10 -11 13 14 15 0
-52 -53 -54 9 -10 -11 13 14 -15 0
-52 -53 -54 9 -10 -11 13 -14 15 0
-52 -53 -54 9 -10 -11 13 -14 -15 0
-52 -53 -54 9 -10 -11 -13 14 15 0
-52 -53 -54 9 -10 -11 -13 14 -15 0
-52 -53 -54 9 -10 -11 -13 -14 15 71 0
-52 -53 -54 9 -10 -11 -13 -14 -15 81 0
-52 -53 -54 -9 10 11 13 14 15 0
-52 -53 -54 -9 10 11 13 14 -15 0
-52 -53 -54 -9 10 11 13 -14 15 0
-52 -53 -54 -9 10 11 13 -14 -15 0
-52 -53 -54 -9 10 11 -13 14 15 0
-52 -53 -54 -9 10 11 -13 14 -15 0
-52 -53 -54 -9 10 11 -13 -14 15 84 0
-52 -53 -54 -9 10 11 -13 -14 -15 92 0
-52 -53 -54 -9 10 -11 13 14 15 0
-52 -53 -54 -9 10 -11 13 14 -15 0
-52 -53 -54 -9 10 -11 13 -14 15 0
-52 -53 -54 -9 10 -11 13 -14 -15 0
-52 -53 -54 -9 10 -11 -13 14 15 0
-52 -53 -54 -9 10 -11 -13 14 -15 0
-52 -53 -54 -9 10 -11 -13 -14 15 61 0
-52 -53 -54 -9 10 -11 -13 -14 -15 56 0
-52 -53 -54 -9 -10 11 13 14 15 0
-52 -53 -54 -9 -10 11 13 14 -15 0
-52 -53 -54 -9 -10 11 13 -14 15 0
-52 -53 -54 -9 -10 11 13 -14 -15 0
-52 -53 -54 -9 -10 11 -13 14 15 0
-52 -53 -54 -9 -10 11 -13 14 -15 0
-52 -53 -54 -9 -10 11 -13 -14 15 77 0
-52 -53 -54 -9 -10 11 -13 -14 -15 56 0
-52 -53 -54 -9 -10 -11 13 14 15 0
-52 -53 -54 -9 -10 -11 13 14 -15 0
-52 -53 -54 -9 -10 -11 13 -14 15 0
-52 -53 -54 -9 -10 -11 13 -14 -15 0
-52 -53 -54 -9 -10 -11 -13 14 15 0
-52 -53 -54 -9 -10 -11 -13 14 -15 76 0
-52 -53 -54 -9 -10 -11 -13 -14 15 90 0
-52 -53 -54 -9 -10 -11 -13 -14 -15 56 0
